
Log for 'CPLEX' Clone_1 (V12.10.0.0) Wed Aug 16 12:13:49 2023

Tried aggregator 1 time.
LP Presolve eliminated 846 rows and 952 columns.
Aggregator did 681 substitutions.
Reduced LP has 675 rows, 1974 columns, and 8915 nonzeros.
Presolve time = 0.00 sec. (4.59 ticks)
Parallel mode: using up to 22 threads for barrier.
Number of nonzeros in lower triangle of A*A' = 7591
Using Approximate Minimum Degree ordering
Total time for automatic ordering = 0.00 sec. (1.66 ticks)
Summary statistics for Cholesky factor:
  Threads                   = 22
  Rows in Factor            = 675
  Integer space required    = 4224
  Total non-zeros in factor = 23163
  Total FP ops to factor    = 1472143
 Itn      Primal Obj        Dual Obj  Prim Inf Upper Inf  Dual Inf Inf Ratio
   0  -1.0010000e+03  -5.2935563e+06  1.78e+06  1.34e+06  1.34e+02  1.00e+00
   1  -6.4229480e+02  -1.5579983e+06  1.09e+06  8.22e+05  3.94e+01  2.95e-03
   2  -2.0858297e+02  -3.9709196e+05  3.36e+05  2.53e+05  1.01e+01  1.18e-02
   3  -1.1687931e+02  -2.3267108e+05  1.86e+05  1.40e+05  5.89e+00  1.94e-02
   4  -2.8158929e+01  -6.8428584e+04  4.35e+04  3.27e+04  1.73e+00  6.55e-02
   5  -6.3724412e+00  -1.4090690e+04  1.06e+04  7.97e+03  3.57e-01  2.81e-01
   6  -1.2028461e+00  -2.6991720e+03  2.29e+03  1.72e+03  6.83e-02  1.47e+00
   7  -4.5694574e-01  -8.7529352e+02  1.51e+03  1.14e+03  2.22e-02  4.41e+00
   8  -3.4634199e-01  -3.8743597e+02  1.13e+03  8.47e+02  9.82e-03  1.04e+01
   9  -2.1371224e-01  -2.2225675e+02  6.64e+02  4.99e+02  5.63e-03  1.85e+01
  10  -1.7381738e-01  -6.6550128e+01  5.31e+02  3.99e+02  1.69e-03  6.17e+01
  11  -5.2635843e-02  -2.6144938e+01  1.26e+02  9.45e+01  6.62e-04  1.63e+02
Barrier time = 0.02 sec. (8.02 ticks)

Dual simplex solved model.


Log for 'CPLEX' Clone_1 (V12.10.0.0) Wed Aug 16 12:13:49 2023

Tried aggregator 1 time.
LP Presolve eliminated 2423 rows and 103 columns.
Aggregator did 1369 substitutions.
Reduced LP has 5518 rows, 5684 columns, and 19116 nonzeros.
Presolve time = 0.00 sec. (13.88 ticks)
Symmetry aggregator did 3303 additional substitutions.
Tried aggregator 0 times.
Reduced presolve eliminated 1 rows and 1 columns.
Reduced LP has 3713 rows, 4184 columns, and 15049 nonzeros.
Presolve time = 0.00 sec. (1.84 ticks)
Parallel mode: using up to 22 threads for barrier.

***NOTE: Found 1 dense columns.

Number of nonzeros in lower triangle of A*A' = 20342
Using Approximate Minimum Degree ordering
Total time for automatic ordering = 0.00 sec. (3.03 ticks)
Summary statistics for Cholesky factor:
  Threads                   = 22
  Rows in Factor            = 3714
  Integer space required    = 13509
  Total non-zeros in factor = 46871
  Total FP ops to factor    = 1710625
 Itn      Primal Obj        Dual Obj  Prim Inf Upper Inf  Dual Inf Inf Ratio
   0   5.8933384e+11  -1.5164556e+15  2.74e+11  2.70e+11  8.92e+06  1.00e+00
   1   3.8511466e+11  -3.9166006e+14  1.35e+11  1.33e+11  2.31e+06  3.12e-11
   2   2.4753560e+11  -1.1907390e+14  3.89e+10  3.83e+10  7.02e+05  8.73e-11
   3   2.2387922e+11  -4.8757998e+13  2.29e+10  2.25e+10  2.88e+05  2.02e-10
   4   1.9700162e+11  -1.6711733e+13  6.54e+09  6.43e+09  9.95e+04  5.73e-10
   5   1.7944872e+11  -5.0241030e+12  1.08e+09  1.06e+09  3.06e+04  1.87e-09
   6   1.6344432e+11  -1.4087736e+12  4.65e+08  4.58e+08  9.23e+03  6.18e-09
   7   1.5942936e+11  -1.1721791e+12  4.37e+08  4.30e+08  7.78e+03  7.26e-09
   8   1.3728247e+11  -5.6049879e+11  2.92e+08  2.87e+08  4.02e+03  1.40e-08
   9   9.2250182e+10  -2.7429806e+11  1.40e+08  1.38e+08  2.14e+03  2.68e-08
  10   6.6712806e+10  -1.6168280e+11  8.98e+07  8.83e+07  1.32e+03  4.37e-08
  11   3.5535883e+10  -8.5593711e+10  4.03e+07  3.97e+07  7.36e+02  8.03e-08
  12   2.1960284e+10  -3.4425179e+10  2.31e+07  2.27e+07  3.15e+02  1.90e-07
  13   1.0245519e+10  -2.4454650e+10  9.85e+06  9.69e+06  2.28e+02  2.66e-07
  14   3.9823458e+09  -2.5079211e+09  3.38e+06  3.32e+06  2.91e+01  2.33e-06
  15   2.3783697e+08  -1.4357491e+08  2.02e+05  1.99e+05  1.67e+00  4.03e-05
  16   4.1866788e+07  -6.5071009e+06  3.50e+04  3.45e+04  8.33e-02  7.94e-04
  17   1.6160519e+07  -4.4554094e+06  1.51e+04  1.49e+04  2.79e-02  9.21e-04
  18   1.0786548e+07  -2.8337443e+06  9.88e+03  9.72e+03  1.91e-02  1.20e-03
  19   5.4936560e+06  -1.6595826e+06  4.34e+03  4.27e+03  1.38e-02  1.57e-03
  20   3.8339870e+06  -5.3732999e+05  2.26e+03  2.22e+03  9.58e-03  2.25e-03
  21   3.6773775e+06   2.9231312e+05  2.09e+03  2.05e+03  6.09e-03  3.62e-03
  22   3.1069618e+06   8.4231692e+05  1.42e+03  1.39e+03  4.01e-03  5.38e-03
  23   2.5548595e+06   1.1293169e+06  7.55e+02  7.43e+02  2.95e-03  7.22e-03
  24   2.3779262e+06   1.3522327e+06  5.35e+02  5.27e+02  2.14e-03  1.00e-02
  25   2.0990844e+06   1.5568842e+06  1.93e+02  1.90e+02  1.40e-03  1.55e-02
  26   1.9735470e+06   1.6984267e+06  6.16e+01  6.06e+01  8.46e-04  2.60e-02
  27   1.9595037e+06   1.8670898e+06  4.03e+01  3.96e+01  2.37e-04  1.34e-01
  28   1.9200103e+06   1.8947406e+06  1.03e+01  9.81e+00  7.30e-05  4.31e-01
  29   1.9078659e+06   1.9054472e+06  6.34e+00  5.79e-01  9.84e-06  3.19e+00
  30   1.9072431e+06   1.9070266e+06  4.76e+01  1.02e-01  4.99e-06  5.96e+01
  31   1.9071447e+06   1.9070784e+06  9.49e+02  2.34e-02  1.40e-05  1.39e+02
  32   1.9071179e+06   1.9071146e+06  8.18e+01  1.18e-03  3.70e-06  2.78e+03
  33   1.9071165e+06   1.9071164e+06  1.53e+02  7.26e-05  1.40e-05  5.50e+04
  34   1.9071165e+06   1.9071165e+06  2.56e+02  3.21e-05  1.48e-05  1.08e+06
  35   1.9071165e+06   1.9071165e+06  2.07e+02  1.92e-05  2.35e-05  2.12e+07
Barrier time = 0.11 sec. (124.20 ticks)

Total time on 22 threads = 0.14 sec. (234.28 ticks)
Barrier time = 0.13 sec. (125.20 ticks)

Log for 'CPLEX' Clone_1 (V12.10.0.0) Wed Aug 16 12:13:49 2023


Primal crossover.
  Primal:  Fixing 10 variables.
        9 PMoves:  Infeasibility  5.00472548e-01  Objective  1.90715535e+06
        0 PMoves:  Infeasibility  4.95155029e-01  Objective  1.90709065e+06
  Primal:  Pushed 4, exchanged 6.
Parallel mode: deterministic, using up to 22 threads for concurrent optimization:
 * Starting dual Simplex on 1 thread...
 * Starting primal Simplex on 1 thread...

Dual crossover.
  Dual:  Fixing 4314 variables.
  Dual:  Fixing 4329 variables.
     4313 DMoves:  Infeasibility  2.79021251e-11  Objective  1.90711646e+06
     4328 DMoves:  Infeasibility  0.00000000e+00  Objective  1.90709065e+06
     2854 DMoves:  Infeasibility  0.00000000e+00  Objective  1.90709065e+06
     3807 DMoves:  Infeasibility  2.79022361e-11  Objective  1.90712087e+06
     1123 DMoves:  Infeasibility  0.00000000e+00  Objective  1.90709065e+06
     2816 DMoves:  Infeasibility  2.79021251e-11  Objective  1.90712091e+06
      128 DMoves:  Infeasibility  9.99200722e-16  Objective  1.90709065e+06
        0 DMoves:  Infeasibility  6.08887940e-15  Objective  1.90709065e+06
  Dual:  Pushed 3063, exchanged 1266.
Using devex.
Removing shift (18).

Iteration log . . .
Iteration:     1   Dual objective     =       1907117.174179
     1486 DMoves:  Infeasibility  2.79056778e-11  Objective  1.90712204e+06
     1043 DMoves:  Infeasibility  2.79063439e-11  Objective  1.90712204e+06
        0 DMoves:  Infeasibility  1.26565425e-14  Objective  1.90712211e+06
  Dual:  Pushed 2915, exchanged 1399.
Iteration:   204   Dual objective     =       1907120.399130
  Primal:  Fixing 52 variables.
       51 PMoves:  Infeasibility  5.21531279e+01  Objective  1.90712566e+06
        0 PMoves:  Infeasibility  8.29000000e+00  Objective  1.90712199e+06
  Primal:  Pushed 37, exchanged 15.

Iteration log . . .
Iteration:     1   Dual objective     =       1907122.114845
Iteration:   368   Dual objective     =       1907122.655776
Iteration:   169   Dual objective     =       1907122.563043
Iteration:   320   Dual objective     =       1907122.686522

Dual simplex solved model.


Dual simplex solved model.

Total crossover time = 0.06 sec. (59.42 ticks)

Total time on 22 threads = 0.20 sec. (294.52 ticks)

Barrier solved model.

